876834
27,10,22,97,53,70,33,89,58,18,11,39,50,24,77,78,28,93,25,16,23,42,51,64,91,83,21,72,94,46,56,8,32,65,3,6,38,13,80,85,44,86,75,37,87,49,35,98,79,36,47,0,69,73,31,59,30,61,55,9,29,95,20,19,76,17,40,68,74,5,48,92,62,12,67,71,54,43,90,52,7,88,84,2,4,63,26,1,41,96,34,82,14,15,81,57,60,66,45
